NAME: tsp20_1
COMMENT: 20-tsp problem (Padberg/Rinaldi)
TYPE: TSP
DIMENSION: 20
EDGE_WEIGHT_TYPE : EUC_2D
NODE_COORD_SECTION
1 20 32
2 5 7
3 2 19
4 13 25
5 3 1
6 2 32
7 4 9
8 9 21
9 37 12
10 26 3
11 13 20
12 34 8
13 9 24
14 32 4
15 1 6
16 7 39
17 13 14
18 6 16
19 20 25
20 19 14
